11337
1 0 1 0 0 1 0 0 1 0 0 1 0 0 1 0 0 1 0 0 1 0 0 0 1 1 0 0 0 0 
20 11 8 2 20 5 2 24 14 17 25 8 8 20 17 14 17 17 25 11 2 0 25 0 25 8 2 24 5 5 25 25 8 25 20 20 24 24 0 14 0 14 24 2 24 14 0 20 11 8 25 2 14 5 8 20 17 25 11 14 0 5 20 11 11 11 24 0 25 25 8 20 11 17 24 8 5 20 2 5 20 0 8 17 17 17 17 0 20 5 2 24 17 11 17 5 2 0 11 8 14 17 17 25 2 25 0 11 14 14 14 2 2 11 11 11 24 24 5 24 5 14 25 20 8 0 5 24 0 11 0 11 24 25 14 14 0 5 20 17 0 8 20 14 8 25 25 5 2 5 
